Route #1: 17 3 49 16 23 43 1 
Route #2: 26 10 31 38 
Route #3: 30 48 47 21 
Route #4: 28 41 42 22 33 
Route #5: 6 2 29 45 34 
Route #6: 24 18 25 32 44 
Route #7: 46 7 35 13 15 27 
Route #8: 8 19 14 11 
Route #9: 5 37 20 36 4 
Route #10: 12 39 9 40 
cost 780.252
execution_time 30.302
